exams={
ANALISI_MATEMATICA_I,
FISICA_I,
FONDAMENTI_DI_INFORMATICA,
PROGRAMMAZIONE,
GEOMETRIA_E_ALGEBRA_LINEARE,
CALCOLO_NUMERICO,
LABORATORIO_DI_PROGRAMMAZIONE,
TEORIA_DEI_CIRCUITI,
VERIFICA_LINGUA_INGLESE,
CHIMICA,

ALGORITMI_E_STRUTTURE_DATI,
ANALISI_MATEMATICA_II_E_PROBABILITA,
CALCOLATORI,
FISICA_II,
FONDAMENTI_DI_AUTOMATICA,
FONDAMENTI_DI_RETI_DI_TELECOMUNICAZIONI,
FONDAMENTI_DI_RICERCA_OPERATIVA,
FONDAMENTI_DI_SEGNALI_E_TRASMISSIONE,
LABORATORIO_DI_ALGORITMI,
SISTEMI_OPERATIVI,
MISURE_ELETTRICHE,


BASI_DI_DATI,
ELETTRONICA_DIGITALE,
INFORMATICA_INDUSTRIALE,
INFORMATICA_TEORICA,
INGEGNERIA_DEL_SOFTWARE,
INTELLIGENZA_ARTIFICIALE,
LABORATORIO_DI_INFORMATICA,
MATEMATICA_DISCRETA_E_CODICI,
METODI_MATEMATICI,
PROGETTAZIONE_E_PRODUZIONE_MULTIMEDIALE,
SISTEMI_DISTRIBUITI,
STATISTICA
};

cfu=[9,6,9,6,6,6,3,6,3,6,  6,6,6,6,9,6,6,6,3,6,6,  6,6,6,6,6,6,3,6,6,6,6,6,];

ASSD={MAT_03, MAT_05, MAT_08, MAT_09, FIS_03, ING_IND_31, SECS_S_02, INGL, CHIM_07};
CSSD={ING_INF_07, ING_INF_05, ING_INF_04, ING_INF_03, ING_INF_01};
dp=1..6;


SSD_of_exam=[A(MAT_05), A(FIS_03), C(ING_INF_05), C(ING_INF_05), A(MAT_03), A(MAT_08), C(ING_INF_05) , A(ING_IND_31), A(INGL), A(CHIM_07),
             C(ING_INF_05), A(MAT_05), C(ING_INF_05), A(FIS_03), C(ING_INF_04), C(ING_INF_03), A(MAT_09), C(ING_INF_03), C(ING_INF_05), C(ING_INF_05), C(ING_INF_07), 
             C(ING_INF_05), C(ING_INF_01), C(ING_INF_05), C(ING_INF_05), C(ING_INF_05), C(ING_INF_05), C(ING_INF_05), A(MAT_03), A(MAT_05), C(ING_INF_05), C(ING_INF_05), A(SECS_S_02)];

dp_of_exam=[2,1,1,2,1,2,2,2,1,1,
            4,3,3,4,4,4,3,3,4,4,3,
            5,6,6,6,5,5,6,5,5,6,6,5];
            
% amin=54;
% amax=180;
% cmin=120;
% cmax=180;

%fp=6;
